Traveling Salesman Problem/TSP_generados/Aleatorio1621105155_19.tsp
NAME: Aleatorio1621105155_19.tsp
COMMENT: Randomly generated scenario
TYPE: TSP
DIMENSION: 19
EDGE_WEIGHT_TYPE: ATT
NODE_COORD_SECTION
1 2.74 42.43
2 17.89 13.31
3 6.2 1.41
4 8.26 44.43
5 46.02 33.56
6 33.11 25.03
7 11.41 1.17
8 28.72 0.3
9 29.93 38.09
10 46.73 39.94
11 1.11 7.16
12 40.47 7.98
13 12.23 40.83
14 43.73 30.19
15 40.73 48.53
16 21.16 9.57
17 14.65 3.27
18 27.03 8.55
19 15.59 40.5
