Traveling Salesman Problem/TSP_generados/Aleatorio1621105155_19.opt.tour
NAME: Aleatorio1621105155_19.opt.tour
COMMENT: Optimal solution for Aleatorio1621105155_19 (191.51622219201448)
TYPE: TOUR
DIMENSION: 19
TOUR_SECTION
1 4 13 19 9 15 10 5 14 6 12 8 18 16 2 17 7 3 11
-1
EOF
